benchmarks/VRPTW/TSPTW/solution/n20w200.003.txt.solution
1 7 12 15 18 5 19 16 17 9 20 6 11 3 10 4 8 13 2 14 21 
249
